TYPE : Vertex Cover
DIMENSION: 25
EDGE_DATA_SECTION:
0 10
1 20
2 6
2 21
3 15
3 17
3 18
3 19
4 7
5 12
6 10
8 12
8 15
8 17
9 19
9 23
10 11
10 19
10 20
10 24
12 21
13 15
15 19
17 19
-1
VERTEX_DEGREE:
1.0 1.0 2.0 4.0 1.0 1.0 2.0 1.0 3.0 2.0 6.0 1.0 3.0 1.0 0.0 4.0 0.0 3.0 1.0 5.0 2.0 2.0 0.0 1.0 1.0
VERTEX_COVER:
2 3 4 9 10 12 15 17 20
EOF
